qe/outputs/qe/cbrdelay_l0_discretize/T=5,eliminate=[I_0,I_1,I_2,I_3,I_4,L_0,L_1,L_2,L_3,L_4,lhs=Q_4].smt2
; benchmark generated from python API
(set-info :status unknown)
(declare-fun S_3 () Real)
(declare-fun S_1 () Real)
(declare-fun C () Real)
(declare-fun S_0 () Real)
(declare-fun S_2 () Real)
(declare-fun A_1 () Real)
(declare-fun S_4 () Real)
(declare-fun B () Real)
(declare-fun A_4 () Real)
(declare-fun Q_4 () Real)
(declare-fun A_2 () Real)
(declare-fun A_3 () Real)
(declare-fun L0 () Real)
(declare-fun A_0 () Real)
(assert
 (let ((?x349 (* (- 1.0) S_2)))
 (let ((?x569 (* (- 1.0) B)))
 (let ((?x525 (* (- 1.0) A_4)))
 (let ((?x533 (* (- 1.0) A_2)))
 (let ((?x1428 (* (- 2.0) B)))
 (let ((?x262 (* (- 1.0) C)))
 (let ((?x247 (* (- 1.0) S_1)))
 (let ((?x588 (* (- 2.0) C)))
 (let (($x37 (>= L0 0.0)))
 (let (($x786 (>= C 5.0)))
 (let (($x620 (>= B 5.0)))
 (let (($x5083 (<= (+ A_2 Q_4 ?x525 S_4 (* (- 1.0) S_3)) 0.0)))
 (let (($x40867 (or $x5083 (<= (+ C Q_4 ?x525 A_1 S_4 (* (- 1.0) S_3) ?x569) 0.0))))
 (let (($x21923 (<= 0.0 (+ C ?x533 A_1))))
 (let (($x22478 (not $x21923)))
 (let (($x493 (<= (+ ?x262 ?x533 A_3) 0.0)))
 (let (($x22442 (not $x493)))
 (let (($x21930 (<= (+ B C A_3 (* (- 1.0) S_4) S_0 (* (- 1.0) A_1)) 0.0)))
 (let (($x371 (<= (+ (* 3.0 C) (* (- 1.0) S_4) S_0) 0.0)))
 (let (($x22105 (<= (+ (* 2.0 C) S_1 (* (- 1.0) S_4)) 0.0)))
 (let (($x16996 (<= (+ A_3 B S_1 (* (- 1.0) S_4) (* (- 1.0) A_1)) 0.0)))
 (let (($x24047 (<= (+ ?x588 (* (- 1.0) A_3) A_1 S_3 (* (- 1.0) S_0) ?x569) 0.0)))
 (let ((?x891 (* (- 1.0) S_0)))
 (let ((?x814 (* (- 3.0) C)))
 (let (($x23950 (<= (+ C A_2 B S_1 (* (- 1.0) S_4) (* (- 1.0) A_1)) 0.0)))
 (let (($x21839 (<= (+ B ?x262 A_2 (* (- 1.0) A_1)) 0.0)))
 (let (($x22529 (not $x21839)))
 (let (($x40702 (or (<= (+ ?x569 A_1 (* (- 1.0) A_3) S_4 (* (- 1.0) S_3)) 0.0) $x21839)))
 (let (($x24334 (<= (+ ?x262 A_3 (* (- 1.0) A_1) S_2 (* (- 1.0) S_4) B) 0.0)))
 (let (($x21970 (<= (+ C S_2 (* (- 1.0) S_4)) 0.0)))
 (let (($x11135 (<= (+ A_3 B ?x533 S_2 (* (- 1.0) S_4)) 0.0)))
 (let (($x20665 (or $x22529 (<= (+ ?x262 A_2 (* (- 1.0) A_3) S_4 (* (- 1.0) S_3)) 0.0))))
 (let (($x23424 (<= (+ (* (- 1.0) Q_4) ?x814 A_4 (* (- 1.0) A_1) B) 0.0)))
 (let ((?x930 (* (- 1.0) A_0)))
 (let ((?x521 (* (- 1.0) Q_4)))
 (let ((?x1180 (* (- 4.0) C)))
 (let (($x23142 (not (<= 0.0 (+ ?x1180 ?x521 A_4 ?x247 ?x930 S_4)))))
 (let (($x22212 (<= 0.0 (+ C ?x525 A_3))))
 (let (($x22418 (not $x22212)))
 (let (($x22371 (<= (+ ?x521 ?x262 A_4 B (* (- 1.0) A_3)) 0.0)))
 (let ((?x537 (* (- 1.0) A_1)))
 (let ((?x508 (* (- 1.0) S_4)))
 (let ((?x575 (* 2.0 C)))
 (let (($x22062 (not (<= 0.0 (+ ?x588 ?x521 A_4 ?x930 S_4 (* (- 1.0) S_3))))))
 (let (($x12122 (<= (+ A_2 B S_1 (* (- 1.0) S_3) ?x537) 0.0)))
 (let (($x500 (<= (+ ?x575 (* (- 1.0) S_3) S_0) 0.0)))
 (let (($x23287 (not (<= 0.0 (+ (* (- 5.0) C) ?x521 A_4 ?x930 S_4 ?x891)))))
 (let (($x21803 (not (<= 0.0 (+ ?x814 ?x521 A_4 ?x349 ?x930 S_4)))))
 (let (($x22072 (not (<= 0.0 (+ ?x262 ?x521 A_4 ?x930)))))
 (let (($x1204 (= Q_4 B)))
 (let (($x22840 (<= (+ ?x521 ?x588 A_4 ?x533 B) 0.0)))
 (let (($x22831 (<= 0.0 (+ ?x575 A_2 ?x525))))
 (let (($x22832 (not $x22831)))
 (let (($x39599 (or $x21923 (<= (+ C A_3 B ?x533 S_1 ?x508) 0.0) (not (<= (+ ?x262 A_3 B ?x533) 0.0)))))
 (let (($x21506 (<= 0.0 (+ ?x262 ?x521 A_4 (* (- 1.0) A_3)))))
 (let (($x565 (<= Q_4 0.0)))
 (let (($x25485 (or $x565 (<= (+ (* 4.0 C) Q_4 ?x525 S_0 L0) 0.0) (not (<= (+ ?x262 A_1 ?x569 ?x891 (* (- 1.0) L0)) 0.0)))))
 (let (($x39823 (or $x565 (<= (+ ?x575 Q_4 ?x525 S_2 L0) 0.0) (<= (+ ?x262 B ?x537 S_2 L0) 0.0))))
 (let (($x40716 (or $x565 $x21506 $x21839 (<= (+ (* 3.0 C) Q_4 ?x525 A_1 ?x569) 0.0))))
 (let (($x22911 (<= (+ ?x569 ?x262 A_2 (* (- 1.0) A_3) S_4 (* (- 1.0) S_3)) 0.0)))
 (let (($x21461 (= (+ C ?x569 Q_4 ?x525 A_3) 0.0)))
 (let (($x21447 (<= (+ C Q_4 ?x525 A_3 ?x569) 0.0)))
 (let (($x20419 (not $x21447)))
 (let (($x40401 (or $x1204 $x20419 $x21461 (not (<= 0.0 (+ ?x588 ?x521 A_4 ?x533))) (= (+ ?x575 A_2 Q_4 ?x525) 0.0))))
 (let (($x2211 (or (= Q_4 0.0) (not $x565))))
 (let (($x111 (>= S_1 S_0)))
 (let (($x114 (>= S_2 S_1)))
 (let (($x117 (>= S_3 S_2)))
 (let (($x120 (>= S_4 S_3)))
 (let (($x122 (>= A_1 A_0)))
 (let (($x123 (>= A_2 A_1)))
 (let (($x124 (>= A_3 A_2)))
 (let (($x125 (>= A_4 A_3)))
 (and $x125 $x124 $x123 $x122 $x120 $x117 $x114 $x111 (<= Q_4 B) (or $x1204 (not $x21506) (= (+ C Q_4 ?x525 A_3) 0.0)) $x2211 (<= (+ ?x814 ?x349 S_4) 0.0) (or $x500 $x21923) (or $x493 $x1204 $x20419 $x21461 $x21803 $x21923) (or $x371 $x493 $x21839) $x40401 (or $x565 $x21447) (<= (+ ?x262 ?x569 ?x525 A_3 S_4 (* (- 1.0) S_3)) 0.0) (<= (+ ?x1180 ?x247 S_4) 0.0) (or $x565 $x21506 (<= 0.0 (+ ?x588 ?x521 A_4 ?x533)) $x22529) (or $x565 $x21506 (<= (+ ?x575 Q_4 ?x525 ?x569 A_2) 0.0)) (<= (+ ?x588 S_4 (* (- 1.0) S_3)) 0.0) $x22911 (<= (+ ?x569 ?x588 A_2 (* (- 1.0) A_3) ?x349 S_4) 0.0) (<= (+ ?x814 ?x569 ?x525 A_3 ?x247 S_4) 0.0) (<= (+ ?x1180 ?x569 ?x525 A_3 S_4 ?x891) 0.0) (or $x1204 $x21923 $x22072 $x22212 $x22831) (or $x1204 $x21923 $x22062 $x22212 $x22831) (or $x493 $x21839 $x22105) $x40716 (or $x21839 (<= (+ C S_1 (* (- 1.0) S_3)) 0.0)) (<= (+ ?x588 (* (- 1.0) A_3) ?x569 A_2 ?x247 S_3) 0.0) (<= (+ ?x569 ?x814 A_2 (* (- 1.0) A_3) ?x247 S_4) 0.0) (<= (+ Q_4 ?x814 ?x525 A_2 ?x569 S_4 ?x891) 0.0) (<= (+ ?x262 (* (- 1.0) A_3) ?x569 A_2 ?x349 S_3) 0.0) $x39823 $x25485 (or $x565 $x21506 (<= (+ (* 3.0 C) Q_4 ?x525 S_1 L0) 0.0)) (<= (+ Q_4 ?x525 S_4 L0) 0.0) (or $x565 (<= (+ C Q_4 ?x525 S_3 L0) 0.0)) (<= (+ (* (- 5.0) C) S_4 ?x891) 0.0) (<= (+ ?x814 (* (- 1.0) A_3) ?x569 A_2 S_3 ?x891) 0.0) $x39599 (or $x371 $x21923 (<= (+ B ?x575 ?x533 A_3 ?x508 S_0) 0.0)) (<= (+ ?x569 ?x1180 A_2 (* (- 1.0) A_3) S_4 ?x891) 0.0) (or $x1204 $x21923 $x22212 $x22840 $x23142) (or $x1204 $x21923 $x22212 $x22840 $x23287) (or $x21923 $x22371 $x22832 $x22840 $x23287) (or $x1204 $x21803 $x21923 $x22212 $x22831) (or $x21923 $x22062 $x22371 $x22832 $x22840) (or $x21803 $x21923 $x22371 $x22832 $x22840) (or $x21923 $x22072 $x22371 $x22832 $x22840) (<= (+ ?x588 ?x533 ?x569 S_2 ?x891 A_1) 0.0) (or $x1204 $x22442 $x22478 $x23287 $x23424) (or $x1204 $x22072 $x22442 $x22478 $x23424) (or $x1204 $x22442 $x22478 $x23142 $x23424) (or $x1204 $x22062 $x22212 $x22478 $x23424) (or $x493 $x1204 $x22212 $x23287 $x23424) (or $x1204 $x22212 $x22478 $x23142 $x23424) (or $x493 $x1204 $x22072 $x22212 $x23424) (or $x1204 $x21803 $x22212 $x22478 $x23424) (or $x21803 $x22371 $x22418 $x22478 $x23424) (<= (+ ?x262 ?x533 ?x569 ?x349 S_3 A_1) 0.0) (<= (+ ?x569 ?x1180 ?x533 A_1 S_4 ?x891) 0.0) (<= (+ ?x814 ?x533 ?x569 S_3 ?x891 A_1) 0.0) (or $x493 $x22371 $x22418 $x23287 $x23424) (or $x21923 $x22371 $x22418 $x22840 $x23142) (or $x22062 $x22371 $x22418 $x22478 $x23424) (or $x12122 (<= (+ C S_1 (* (- 1.0) S_3)) 0.0)) (or $x500 $x12122) (or $x500 $x21839) (or $x493 $x22062 $x22371 $x22418 $x23424) (<= (+ Q_4 ?x525 A_2 ?x569 S_4 (* (- 1.0) S_3)) 0.0) (<= (+ Q_4 ?x262 ?x525 A_2 ?x569 ?x349 S_4) 0.0) (or (<= (+ B C A_2 (* (- 1.0) S_3) S_0 ?x537) 0.0) $x22529) (<= (+ ?x262 ?x533 ?x569 ?x247 S_2 A_1) 0.0) (or $x493 $x22072 $x22371 $x22418 $x23424) (<= (+ ?x569 ?x588 ?x533 A_1 ?x349 S_4) 0.0) (<= (+ ?x262 Q_4 ?x525 ?x569 ?x247 S_4 A_1) 0.0) (<= (+ ?x569 ?x814 ?x533 A_1 ?x247 S_4) 0.0) (or $x371 $x493 (<= (+ ?x575 A_2 B ?x508 S_0 ?x537) 0.0)) (<= (+ ?x588 ?x533 ?x569 ?x247 S_3 A_1) 0.0) (or $x5083 $x22529) (or $x493 $x22371 $x22418 $x23142 $x23424) (<= (+ ?x569 ?x588 (* (- 1.0) A_3) ?x247 S_4 A_1) 0.0) (<= (+ ?x569 ?x262 (* (- 1.0) A_3) ?x349 S_4 A_1) 0.0) $x20665 (<= (+ ?x588 Q_4 ?x525 ?x569 S_4 ?x891 A_1) 0.0) (<= (+ Q_4 ?x588 ?x525 A_2 ?x569 ?x247 S_4) 0.0) (or (<= (+ A_3 S_2 ?x508 ?x533) 0.0) $x21970) (or $x11135 $x21930 $x21970) (<= (+ ?x588 ?x569 ?x525 A_3 ?x349 S_4) 0.0) (or $x11135 $x16996 $x21970) (<= (+ ?x569 ?x814 (* (- 1.0) A_3) S_4 ?x891 A_1) 0.0) (or $x11135 $x21970 $x24334) (<= (+ (* (- 1.0) A_3) A_1 ?x349 S_3 ?x569) 0.0) (<= (+ ?x262 (* (- 1.0) A_3) A_1 ?x247 S_3 ?x569) 0.0) $x40702 (or $x16996 $x22529 $x23950) (<= (+ Q_4 ?x814 ?x525 ?x1428 A_3 S_4 ?x891 ?x533 A_1) 0.0) $x24047 (or $x16996 $x22105 (<= (+ ?x262 A_3 B ?x533) 0.0) $x22442) (or $x16996 $x22105 $x22442 $x22478) (or $x371 $x21930 (<= (+ ?x262 A_3 B ?x533) 0.0) $x22442) (or $x371 $x21930 $x22442 $x22478) $x40867 $x620 $x786 $x37 (<= (+ C ?x349 S_0) 0.0) (not (>= (+ ?x930 S_4 L0) 0.0)) (<= (+ ?x588 S_1 ?x891) 0.0) (<= (+ ?x588 ?x247 S_2) 0.0) (<= (+ Q_4 ?x588 ?x525 ?x1428 A_3 ?x247 S_4 ?x533 A_1) 0.0) (<= (+ Q_4 ?x262 ?x525 ?x1428 A_3 ?x349 S_4 ?x533 A_1) 0.0) (<= (+ Q_4 ?x525 ?x569 ?x349 S_4 A_1) 0.0) (<= (+ ?x814 S_2 ?x891) 0.0) (<= (+ ?x588 ?x349 S_3) 0.0) (<= (+ ?x1180 S_3 ?x891) 0.0) (<= (+ ?x814 ?x247 S_3) 0.0))))))))))))))))))))))))))))))))))))))))))))))))))))))))))))))))))))))))))))
(check-sat)
